p cnf 405 2107
1 2 3 4 5 6 0
-1 -295 0
-1 -296 0
-1 -297 0
-2 295 0
-2 -296 0
-2 -297 0
-3 -295 0
-3 296 0
-3 -297 0
-4 295 0
-4 296 0
-4 -297 0
-5 -295 0
-5 -296 0
-5 297 0
-6 295 0
-6 -296 0
-6 297 0
-1 43 0
-1 7 0
-2 44 0
-2 8 0
-3 45 0
-3 9 0
-4 46 0
-4 10 0
-5 47 0
-5 11 0
-6 48 0
-6 12 0
7 8 9 10 11 12 0
-7 -298 0
-7 -299 0
-7 -300 0
-8 298 0
-8 -299 0
-8 -300 0
-9 -298 0
-9 299 0
-9 -300 0
-10 298 0
-10 299 0
-10 -300 0
-11 -298 0
-11 -299 0
-11 300 0
-12 298 0
-12 -299 0
-12 300 0
-7 1 13 0
-7 1 49 0
-7 13 49 0
-8 2 14 0
-8 2 50 0
-8 14 50 0
-9 3 15 0
-9 3 51 0
-9 15 51 0
-10 4 16 0
-10 4 52 0
-10 16 52 0
-11 5 17 0
-11 5 53 0
-11 17 53 0
-12 6 18 0
-12 6 54 0
-12 18 54 0
-7 -1 -13 -49 0
-8 -2 -14 -50 0
-9 -3 -15 -51 0
-10 -4 -16 -52 0
-11 -5 -17 -53 0
-12 -6 -18 -54 0
13 14 15 16 17 18 0
-13 -301 0
-13 -302 0
-13 -303 0
-14 301 0
-14 -302 0
-14 -303 0
-15 -301 0
-15 302 0
-15 -303 0
-16 301 0
-16 302 0
-16 -303 0
-17 -301 0
-17 -302 0
-17 303 0
-18 301 0
-18 -302 0
-18 303 0
-13 7 19 0
-13 7 55 0
-13 19 55 0
-14 8 20 0
-14 8 56 0
-14 20 56 0
-15 9 21 0
-15 9 57 0
-15 21 57 0
-16 10 22 0
-16 10 58 0
-16 22 58 0
-17 11 23 0
-17 11 59 0
-17 23 59 0
-18 12 24 0
-18 12 60 0
-18 24 60 0
-13 -7 -19 -55 0
-14 -8 -20 -56 0
-15 -9 -21 -57 0
-16 -10 -22 -58 0
-17 -11 -23 -59 0
-18 -12 -24 -60 0
19 20 21 22 23 24 0
-19 -304 0
-19 -305 0
-19 -306 0
-20 304 0
-20 -305 0
-20 -306 0
-21 -304 0
-21 305 0
-21 -306 0
-22 304 0
-22 305 0
-22 -306 0
-23 -304 0
-23 -305 0
-23 306 0
-24 304 0
-24 -305 0
-24 306 0
-19 13 25 0
-19 13 61 0
-19 25 61 0
-20 14 26 0
-20 14 62 0
-20 26 62 0
-21 15 27 0
-21 15 63 0
-21 27 63 0
-22 16 28 0
-22 16 64 0
-22 28 64 0
-23 17 29 0
-23 17 65 0
-23 29 65 0
-24 18 30 0
-24 18 66 0
-24 30 66 0
-19 -13 -25 -61 0
-20 -14 -26 -62 0
-21 -15 -27 -63 0
-22 -16 -28 -64 0
-23 -17 -29 -65 0
-24 -18 -30 -66 0
25 26 27 28 29 30 0
-25 -307 0
-25 -308 0
-25 -309 0
-26 307 0
-26 -308 0
-26 -309 0
-27 -307 0
-27 308 0
-27 -309 0
-28 307 0
-28 308 0
-28 -309 0
-29 -307 0
-29 -308 0
-29 309 0
-30 307 0
-30 -308 0
-30 309 0
-25 19 31 0
-25 19 67 0
-25 31 67 0
-26 20 32 0
-26 20 68 0
-26 32 68 0
-27 21 33 0
-27 21 69 0
-27 33 69 0
-28 22 34 0
-28 22 70 0
-28 34 70 0
-29 23 35 0
-29 23 71 0
-29 35 71 0
-30 24 36 0
-30 24 72 0
-30 36 72 0
-25 -19 -31 -67 0
-26 -20 -32 -68 0
-27 -21 -33 -69 0
-28 -22 -34 -70 0
-29 -23 -35 -71 0
-30 -24 -36 -72 0
31 32 33 34 35 36 0
-31 -310 0
-31 -311 0
-31 -312 0
-32 310 0
-32 -311 0
-32 -312 0
-33 -310 0
-33 311 0
-33 -312 0
-34 310 0
-34 311 0
-34 -312 0
-35 -310 0
-35 -311 0
-35 312 0
-36 310 0
-36 -311 0
-36 312 0
-31 25 37 0
-31 25 73 0
-31 37 73 0
-32 26 38 0
-32 26 74 0
-32 38 74 0
-33 27 39 0
-33 27 75 0
-33 39 75 0
-34 28 40 0
-34 28 76 0
-34 40 76 0
-35 29 41 0
-35 29 77 0
-35 41 77 0
-36 30 42 0
-36 30 78 0
-36 42 78 0
-31 -25 -37 -73 0
-32 -26 -38 -74 0
-33 -27 -39 -75 0
-34 -28 -40 -76 0
-35 -29 -41 -77 0
-36 -30 -42 -78 0
37 38 39 40 41 42 0
-37 -313 0
-37 -314 0
-37 -315 0
-38 313 0
-38 -314 0
-38 -315 0
-39 -313 0
-39 314 0
-39 -315 0
-40 313 0
-40 314 0
-40 -315 0
-41 -313 0
-41 -314 0
-41 315 0
-42 313 0
-42 -314 0
-42 315 0
-37 79 0
-37 31 0
-38 80 0
-38 32 0
-39 81 0
-39 33 0
-40 82 0
-40 34 0
-41 83 0
-41 35 0
-42 84 0
-42 36 0
43 44 45 46 47 48 0
-43 -316 0
-43 -317 0
-43 -318 0
-44 316 0
-44 -317 0
-44 -318 0
-45 -316 0
-45 317 0
-45 -318 0
-46 316 0
-46 317 0
-46 -318 0
-47 -316 0
-47 -317 0
-47 318 0
-48 316 0
-48 -317 0
-48 318 0
-43 85 49 0
-43 85 1 0
-43 49 1 0
-44 86 50 0
-44 86 2 0
-44 50 2 0
-45 87 51 0
-45 87 3 0
-45 51 3 0
-46 88 52 0
-46 88 4 0
-46 52 4 0
-47 89 53 0
-47 89 5 0
-47 53 5 0
-48 90 54 0
-48 90 6 0
-48 54 6 0
-43 -85 -49 -1 0
-44 -86 -50 -2 0
-45 -87 -51 -3 0
-46 -88 -52 -4 0
-47 -89 -53 -5 0
-48 -90 -54 -6 0
49 50 51 52 53 54 0
-49 -319 0
-49 -320 0
-49 -321 0
-50 319 0
-50 -320 0
-50 -321 0
-51 -319 0
-51 320 0
-51 -321 0
-52 319 0
-52 320 0
-52 -321 0
-53 -319 0
-53 -320 0
-53 321 0
-54 319 0
-54 -320 0
-54 321 0
-49 91 55 7 0
-49 91 55 43 0
-49 91 7 43 0
-49 55 7 43 0
-50 92 56 8 0
-50 92 56 44 0
-50 92 8 44 0
-50 56 8 44 0
-51 93 57 9 0
-51 93 57 45 0
-51 93 9 45 0
-51 57 9 45 0
-52 94 58 10 0
-52 94 58 46 0
-52 94 10 46 0
-52 58 10 46 0
-53 95 59 11 0
-53 95 59 47 0
-53 95 11 47 0
-53 59 11 47 0
-54 96 60 12 0
-54 96 60 48 0
-54 96 12 48 0
-54 60 12 48 0
-49 -91 -55 -7 0
-49 -91 -55 -43 0
-49 -91 -7 -43 0
-49 -55 -7 -43 0
-50 -92 -56 -8 0
-50 -92 -56 -44 0
-50 -92 -8 -44 0
-50 -56 -8 -44 0
-51 -93 -57 -9 0
-51 -93 -57 -45 0
-51 -93 -9 -45 0
-51 -57 -9 -45 0
-52 -94 -58 -10 0
-52 -94 -58 -46 0
-52 -94 -10 -46 0
-52 -58 -10 -46 0
-53 -95 -59 -11 0
-53 -95 -59 -47 0
-53 -95 -11 -47 0
-53 -59 -11 -47 0
-54 -96 -60 -12 0
-54 -96 -60 -48 0
-54 -96 -12 -48 0
-54 -60 -12 -48 0
55 56 57 58 59 60 0
-55 -322 0
-55 -323 0
-55 -324 0
-56 322 0
-56 -323 0
-56 -324 0
-57 -322 0
-57 323 0
-57 -324 0
-58 322 0
-58 323 0
-58 -324 0
-59 -322 0
-59 -323 0
-59 324 0
-60 322 0
-60 -323 0
-60 324 0
-55 97 61 13 0
-55 97 61 49 0
-55 97 13 49 0
-55 61 13 49 0
-56 98 62 14 0
-56 98 62 50 0
-56 98 14 50 0
-56 62 14 50 0
-57 99 63 15 0
-57 99 63 51 0
-57 99 15 51 0
-57 63 15 51 0
-58 100 64 16 0
-58 100 64 52 0
-58 100 16 52 0
-58 64 16 52 0
-59 101 65 17 0
-59 101 65 53 0
-59 101 17 53 0
-59 65 17 53 0
-60 102 66 18 0
-60 102 66 54 0
-60 102 18 54 0
-60 66 18 54 0
-55 -97 -61 -13 0
-55 -97 -61 -49 0
-55 -97 -13 -49 0
-55 -61 -13 -49 0
-56 -98 -62 -14 0
-56 -98 -62 -50 0
-56 -98 -14 -50 0
-56 -62 -14 -50 0
-57 -99 -63 -15 0
-57 -99 -63 -51 0
-57 -99 -15 -51 0
-57 -63 -15 -51 0
-58 -100 -64 -16 0
-58 -100 -64 -52 0
-58 -100 -16 -52 0
-58 -64 -16 -52 0
-59 -101 -65 -17 0
-59 -101 -65 -53 0
-59 -101 -17 -53 0
-59 -65 -17 -53 0
-60 -102 -66 -18 0
-60 -102 -66 -54 0
-60 -102 -18 -54 0
-60 -66 -18 -54 0
61 62 63 64 65 66 0
-61 -325 0
-61 -326 0
-61 -327 0
-62 325 0
-62 -326 0
-62 -327 0
-63 -325 0
-63 326 0
-63 -327 0
-64 325 0
-64 326 0
-64 -327 0
-65 -325 0
-65 -326 0
-65 327 0
-66 325 0
-66 -326 0
-66 327 0
-61 103 67 19 0
-61 103 67 55 0
-61 103 19 55 0
-61 67 19 55 0
-62 104 68 20 0
-62 104 68 56 0
-62 104 20 56 0
-62 68 20 56 0
-63 105 69 21 0
-63 105 69 57 0
-63 105 21 57 0
-63 69 21 57 0
-64 106 70 22 0
-64 106 70 58 0
-64 106 22 58 0
-64 70 22 58 0
-65 107 71 23 0
-65 107 71 59 0
-65 107 23 59 0
-65 71 23 59 0
-66 108 72 24 0
-66 108 72 60 0
-66 108 24 60 0
-66 72 24 60 0
-61 -103 -67 -19 0
-61 -103 -67 -55 0
-61 -103 -19 -55 0
-61 -67 -19 -55 0
-62 -104 -68 -20 0
-62 -104 -68 -56 0
-62 -104 -20 -56 0
-62 -68 -20 -56 0
-63 -105 -69 -21 0
-63 -105 -69 -57 0
-63 -105 -21 -57 0
-63 -69 -21 -57 0
-64 -106 -70 -22 0
-64 -106 -70 -58 0
-64 -106 -22 -58 0
-64 -70 -22 -58 0
-65 -107 -71 -23 0
-65 -107 -71 -59 0
-65 -107 -23 -59 0
-65 -71 -23 -59 0
-66 -108 -72 -24 0
-66 -108 -72 -60 0
-66 -108 -24 -60 0
-66 -72 -24 -60 0
67 68 69 70 71 72 0
-67 -328 0
-67 -329 0
-67 -330 0
-68 328 0
-68 -329 0
-68 -330 0
-69 -328 0
-69 329 0
-69 -330 0
-70 328 0
-70 329 0
-70 -330 0
-71 -328 0
-71 -329 0
-71 330 0
-72 328 0
-72 -329 0
-72 330 0
-67 109 73 25 0
-67 109 73 61 0
-67 109 25 61 0
-67 73 25 61 0
-68 110 74 26 0
-68 110 74 62 0
-68 110 26 62 0
-68 74 26 62 0
-69 111 75 27 0
-69 111 75 63 0
-69 111 27 63 0
-69 75 27 63 0
-70 112 76 28 0
-70 112 76 64 0
-70 112 28 64 0
-70 76 28 64 0
-71 113 77 29 0
-71 113 77 65 0
-71 113 29 65 0
-71 77 29 65 0
-72 114 78 30 0
-72 114 78 66 0
-72 114 30 66 0
-72 78 30 66 0
-67 -109 -73 -25 0
-67 -109 -73 -61 0
-67 -109 -25 -61 0
-67 -73 -25 -61 0
-68 -110 -74 -26 0
-68 -110 -74 -62 0
-68 -110 -26 -62 0
-68 -74 -26 -62 0
-69 -111 -75 -27 0
-69 -111 -75 -63 0
-69 -111 -27 -63 0
-69 -75 -27 -63 0
-70 -112 -76 -28 0
-70 -112 -76 -64 0
-70 -112 -28 -64 0
-70 -76 -28 -64 0
-71 -113 -77 -29 0
-71 -113 -77 -65 0
-71 -113 -29 -65 0
-71 -77 -29 -65 0
-72 -114 -78 -30 0
-72 -114 -78 -66 0
-72 -114 -30 -66 0
-72 -78 -30 -66 0
73 74 75 76 77 78 0
-73 -331 0
-73 -332 0
-73 -333 0
-74 331 0
-74 -332 0
-74 -333 0
-75 -331 0
-75 332 0
-75 -333 0
-76 331 0
-76 332 0
-76 -333 0
-77 -331 0
-77 -332 0
-77 333 0
-78 331 0
-78 -332 0
-78 333 0
-73 115 79 31 0
-73 115 79 67 0
-73 115 31 67 0
-73 79 31 67 0
-74 116 80 32 0
-74 116 80 68 0
-74 116 32 68 0
-74 80 32 68 0
-75 117 81 33 0
-75 117 81 69 0
-75 117 33 69 0
-75 81 33 69 0
-76 118 82 34 0
-76 118 82 70 0
-76 118 34 70 0
-76 82 34 70 0
-77 119 83 35 0
-77 119 83 71 0
-77 119 35 71 0
-77 83 35 71 0
-78 120 84 36 0
-78 120 84 72 0
-78 120 36 72 0
-78 84 36 72 0
-73 -115 -79 -31 0
-73 -115 -79 -67 0
-73 -115 -31 -67 0
-73 -79 -31 -67 0
-74 -116 -80 -32 0
-74 -116 -80 -68 0
-74 -116 -32 -68 0
-74 -80 -32 -68 0
-75 -117 -81 -33 0
-75 -117 -81 -69 0
-75 -117 -33 -69 0
-75 -81 -33 -69 0
-76 -118 -82 -34 0
-76 -118 -82 -70 0
-76 -118 -34 -70 0
-76 -82 -34 -70 0
-77 -119 -83 -35 0
-77 -119 -83 -71 0
-77 -119 -35 -71 0
-77 -83 -35 -71 0
-78 -120 -84 -36 0
-78 -120 -84 -72 0
-78 -120 -36 -72 0
-78 -84 -36 -72 0
79 80 81 82 83 84 0
-79 -334 0
-79 -335 0
-79 -336 0
-80 334 0
-80 -335 0
-80 -336 0
-81 -334 0
-81 335 0
-81 -336 0
-82 334 0
-82 335 0
-82 -336 0
-83 -334 0
-83 -335 0
-83 336 0
-84 334 0
-84 -335 0
-84 336 0
-79 121 73 0
-79 121 37 0
-79 73 37 0
-80 122 74 0
-80 122 38 0
-80 74 38 0
-81 123 75 0
-81 123 39 0
-81 75 39 0
-82 124 76 0
-82 124 40 0
-82 76 40 0
-83 125 77 0
-83 125 41 0
-83 77 41 0
-84 126 78 0
-84 126 42 0
-84 78 42 0
-79 -121 -73 -37 0
-80 -122 -74 -38 0
-81 -123 -75 -39 0
-82 -124 -76 -40 0
-83 -125 -77 -41 0
-84 -126 -78 -42 0
85 86 87 88 89 90 0
-85 -337 0
-85 -338 0
-85 -339 0
-86 337 0
-86 -338 0
-86 -339 0
-87 -337 0
-87 338 0
-87 -339 0
-88 337 0
-88 338 0
-88 -339 0
-89 -337 0
-89 -338 0
-89 339 0
-90 337 0
-90 -338 0
-90 339 0
-85 127 91 0
-85 127 43 0
-85 91 43 0
-86 128 92 0
-86 128 44 0
-86 92 44 0
-87 129 93 0
-87 129 45 0
-87 93 45 0
-88 130 94 0
-88 130 46 0
-88 94 46 0
-89 131 95 0
-89 131 47 0
-89 95 47 0
-90 132 96 0
-90 132 48 0
-90 96 48 0
-85 -127 -91 -43 0
-86 -128 -92 -44 0
-87 -129 -93 -45 0
-88 -130 -94 -46 0
-89 -131 -95 -47 0
-90 -132 -96 -48 0
91 92 93 94 95 96 0
-91 -340 0
-91 -341 0
-91 -342 0
-92 340 0
-92 -341 0
-92 -342 0
-93 -340 0
-93 341 0
-93 -342 0
-94 340 0
-94 341 0
-94 -342 0
-95 -340 0
-95 -341 0
-95 342 0
-96 340 0
-96 -341 0
-96 342 0
-91 133 97 49 0
-91 133 97 85 0
-91 133 49 85 0
-91 97 49 85 0
-92 134 98 50 0
-92 134 98 86 0
-92 134 50 86 0
-92 98 50 86 0
-93 135 99 51 0
-93 135 99 87 0
-93 135 51 87 0
-93 99 51 87 0
-94 136 100 52 0
-94 136 100 88 0
-94 136 52 88 0
-94 100 52 88 0
-95 137 101 53 0
-95 137 101 89 0
-95 137 53 89 0
-95 101 53 89 0
-96 138 102 54 0
-96 138 102 90 0
-96 138 54 90 0
-96 102 54 90 0
-91 -133 -97 -49 0
-91 -133 -97 -85 0
-91 -133 -49 -85 0
-91 -97 -49 -85 0
-92 -134 -98 -50 0
-92 -134 -98 -86 0
-92 -134 -50 -86 0
-92 -98 -50 -86 0
-93 -135 -99 -51 0
-93 -135 -99 -87 0
-93 -135 -51 -87 0
-93 -99 -51 -87 0
-94 -136 -100 -52 0
-94 -136 -100 -88 0
-94 -136 -52 -88 0
-94 -100 -52 -88 0
-95 -137 -101 -53 0
-95 -137 -101 -89 0
-95 -137 -53 -89 0
-95 -101 -53 -89 0
-96 -138 -102 -54 0
-96 -138 -102 -90 0
-96 -138 -54 -90 0
-96 -102 -54 -90 0
97 98 99 100 101 102 0
-97 -343 0
-97 -344 0
-97 -345 0
-98 343 0
-98 -344 0
-98 -345 0
-99 -343 0
-99 344 0
-99 -345 0
-100 343 0
-100 344 0
-100 -345 0
-101 -343 0
-101 -344 0
-101 345 0
-102 343 0
-102 -344 0
-102 345 0
-97 139 103 55 0
-97 139 103 91 0
-97 139 55 91 0
-97 103 55 91 0
-98 140 104 56 0
-98 140 104 92 0
-98 140 56 92 0
-98 104 56 92 0
-99 141 105 57 0
-99 141 105 93 0
-99 141 57 93 0
-99 105 57 93 0
-100 142 106 58 0
-100 142 106 94 0
-100 142 58 94 0
-100 106 58 94 0
-101 143 107 59 0
-101 143 107 95 0
-101 143 59 95 0
-101 107 59 95 0
-102 144 108 60 0
-102 144 108 96 0
-102 144 60 96 0
-102 108 60 96 0
-97 -139 -103 -55 0
-97 -139 -103 -91 0
-97 -139 -55 -91 0
-97 -103 -55 -91 0
-98 -140 -104 -56 0
-98 -140 -104 -92 0
-98 -140 -56 -92 0
-98 -104 -56 -92 0
-99 -141 -105 -57 0
-99 -141 -105 -93 0
-99 -141 -57 -93 0
-99 -105 -57 -93 0
-100 -142 -106 -58 0
-100 -142 -106 -94 0
-100 -142 -58 -94 0
-100 -106 -58 -94 0
-101 -143 -107 -59 0
-101 -143 -107 -95 0
-101 -143 -59 -95 0
-101 -107 -59 -95 0
-102 -144 -108 -60 0
-102 -144 -108 -96 0
-102 -144 -60 -96 0
-102 -108 -60 -96 0
103 104 105 106 107 108 0
-103 -346 0
-103 -347 0
-103 -348 0
-104 346 0
-104 -347 0
-104 -348 0
-105 -346 0
-105 347 0
-105 -348 0
-106 346 0
-106 347 0
-106 -348 0
-107 -346 0
-107 -347 0
-107 348 0
-108 346 0
-108 -347 0
-108 348 0
-103 145 109 61 0
-103 145 109 97 0
-103 145 61 97 0
-103 109 61 97 0
-104 146 110 62 0
-104 146 110 98 0
-104 146 62 98 0
-104 110 62 98 0
-105 147 111 63 0
-105 147 111 99 0
-105 147 63 99 0
-105 111 63 99 0
-106 148 112 64 0
-106 148 112 100 0
-106 148 64 100 0
-106 112 64 100 0
-107 149 113 65 0
-107 149 113 101 0
-107 149 65 101 0
-107 113 65 101 0
-108 150 114 66 0
-108 150 114 102 0
-108 150 66 102 0
-108 114 66 102 0
-103 -145 -109 -61 0
-103 -145 -109 -97 0
-103 -145 -61 -97 0
-103 -109 -61 -97 0
-104 -146 -110 -62 0
-104 -146 -110 -98 0
-104 -146 -62 -98 0
-104 -110 -62 -98 0
-105 -147 -111 -63 0
-105 -147 -111 -99 0
-105 -147 -63 -99 0
-105 -111 -63 -99 0
-106 -148 -112 -64 0
-106 -148 -112 -100 0
-106 -148 -64 -100 0
-106 -112 -64 -100 0
-107 -149 -113 -65 0
-107 -149 -113 -101 0
-107 -149 -65 -101 0
-107 -113 -65 -101 0
-108 -150 -114 -66 0
-108 -150 -114 -102 0
-108 -150 -66 -102 0
-108 -114 -66 -102 0
110 0
-109 0
-111 0
-112 0
-113 0
-114 0
152 116 68 104 0
-152 -116 0
-152 -68 0
-152 -104 0
-116 -68 0
-116 -104 0
-68 -104 0
117 0
-115 0
-116 0
-118 0
-119 0
-120 0
159 123 75 111 0
-159 -123 0
-159 -75 0
-159 -111 0
-123 -75 0
-123 -111 0
-75 -111 0
121 122 123 124 125 126 0
-121 -349 0
-121 -350 0
-121 -351 0
-122 349 0
-122 -350 0
-122 -351 0
-123 -349 0
-123 350 0
-123 -351 0
-124 349 0
-124 350 0
-124 -351 0
-125 -349 0
-125 -350 0
-125 351 0
-126 349 0
-126 -350 0
-126 351 0
-121 163 115 0
-121 163 79 0
-121 115 79 0
-122 164 116 0
-122 164 80 0
-122 116 80 0
-123 165 117 0
-123 165 81 0
-123 117 81 0
-124 166 118 0
-124 166 82 0
-124 118 82 0
-125 167 119 0
-125 167 83 0
-125 119 83 0
-126 168 120 0
-126 168 84 0
-126 120 84 0
-121 -163 -115 -79 0
-122 -164 -116 -80 0
-123 -165 -117 -81 0
-124 -166 -118 -82 0
-125 -167 -119 -83 0
-126 -168 -120 -84 0
127 128 129 130 131 132 0
-127 -352 0
-127 -353 0
-127 -354 0
-128 352 0
-128 -353 0
-128 -354 0
-129 -352 0
-129 353 0
-129 -354 0
-130 352 0
-130 353 0
-130 -354 0
-131 -352 0
-131 -353 0
-131 354 0
-132 352 0
-132 -353 0
-132 354 0
-127 169 133 0
-127 169 85 0
-127 133 85 0
-128 170 134 0
-128 170 86 0
-128 134 86 0
-129 171 135 0
-129 171 87 0
-129 135 87 0
-130 172 136 0
-130 172 88 0
-130 136 88 0
-131 173 137 0
-131 173 89 0
-131 137 89 0
-132 174 138 0
-132 174 90 0
-132 138 90 0
-127 -169 -133 -85 0
-128 -170 -134 -86 0
-129 -171 -135 -87 0
-130 -172 -136 -88 0
-131 -173 -137 -89 0
-132 -174 -138 -90 0
133 134 135 136 137 138 0
-133 -355 0
-133 -356 0
-133 -357 0
-134 355 0
-134 -356 0
-134 -357 0
-135 -355 0
-135 356 0
-135 -357 0
-136 355 0
-136 356 0
-136 -357 0
-137 -355 0
-137 -356 0
-137 357 0
-138 355 0
-138 -356 0
-138 357 0
-133 175 139 91 0
-133 175 139 127 0
-133 175 91 127 0
-133 139 91 127 0
-134 176 140 92 0
-134 176 140 128 0
-134 176 92 128 0
-134 140 92 128 0
-135 177 141 93 0
-135 177 141 129 0
-135 177 93 129 0
-135 141 93 129 0
-136 178 142 94 0
-136 178 142 130 0
-136 178 94 130 0
-136 142 94 130 0
-137 179 143 95 0
-137 179 143 131 0
-137 179 95 131 0
-137 143 95 131 0
-138 180 144 96 0
-138 180 144 132 0
-138 180 96 132 0
-138 144 96 132 0
-133 -175 -139 -91 0
-133 -175 -139 -127 0
-133 -175 -91 -127 0
-133 -139 -91 -127 0
-134 -176 -140 -92 0
-134 -176 -140 -128 0
-134 -176 -92 -128 0
-134 -140 -92 -128 0
-135 -177 -141 -93 0
-135 -177 -141 -129 0
-135 -177 -93 -129 0
-135 -141 -93 -129 0
-136 -178 -142 -94 0
-136 -178 -142 -130 0
-136 -178 -94 -130 0
-136 -142 -94 -130 0
-137 -179 -143 -95 0
-137 -179 -143 -131 0
-137 -179 -95 -131 0
-137 -143 -95 -131 0
-138 -180 -144 -96 0
-138 -180 -144 -132 0
-138 -180 -96 -132 0
-138 -144 -96 -132 0
139 140 141 142 143 144 0
-139 -358 0
-139 -359 0
-139 -360 0
-140 358 0
-140 -359 0
-140 -360 0
-141 -358 0
-141 359 0
-141 -360 0
-142 358 0
-142 359 0
-142 -360 0
-143 -358 0
-143 -359 0
-143 360 0
-144 358 0
-144 -359 0
-144 360 0
-139 181 145 97 0
-139 181 145 133 0
-139 181 97 133 0
-139 145 97 133 0
-140 182 146 98 0
-140 182 146 134 0
-140 182 98 134 0
-140 146 98 134 0
-141 183 147 99 0
-141 183 147 135 0
-141 183 99 135 0
-141 147 99 135 0
-142 184 148 100 0
-142 184 148 136 0
-142 184 100 136 0
-142 148 100 136 0
-143 185 149 101 0
-143 185 149 137 0
-143 185 101 137 0
-143 149 101 137 0
-144 186 150 102 0
-144 186 150 138 0
-144 186 102 138 0
-144 150 102 138 0
-139 -181 -145 -97 0
-139 -181 -145 -133 0
-139 -181 -97 -133 0
-139 -145 -97 -133 0
-140 -182 -146 -98 0
-140 -182 -146 -134 0
-140 -182 -98 -134 0
-140 -146 -98 -134 0
-141 -183 -147 -99 0
-141 -183 -147 -135 0
-141 -183 -99 -135 0
-141 -147 -99 -135 0
-142 -184 -148 -100 0
-142 -184 -148 -136 0
-142 -184 -100 -136 0
-142 -148 -100 -136 0
-143 -185 -149 -101 0
-143 -185 -149 -137 0
-143 -185 -101 -137 0
-143 -149 -101 -137 0
-144 -186 -150 -102 0
-144 -186 -150 -138 0
-144 -186 -102 -138 0
-144 -150 -102 -138 0
145 146 147 148 149 150 0
-145 -361 0
-145 -362 0
-145 -363 0
-146 361 0
-146 -362 0
-146 -363 0
-147 -361 0
-147 362 0
-147 -363 0
-148 361 0
-148 362 0
-148 -363 0
-149 -361 0
-149 -362 0
-149 363 0
-150 361 0
-150 -362 0
-150 363 0
-145 187 151 103 0
-145 187 151 139 0
-145 187 103 139 0
-145 151 103 139 0
-146 188 152 104 0
-146 188 152 140 0
-146 188 104 140 0
-146 152 104 140 0
-147 189 153 105 0
-147 189 153 141 0
-147 189 105 141 0
-147 153 105 141 0
-148 190 154 106 0
-148 190 154 142 0
-148 190 106 142 0
-148 154 106 142 0
-149 191 155 107 0
-149 191 155 143 0
-149 191 107 143 0
-149 155 107 143 0
-150 192 156 108 0
-150 192 156 144 0
-150 192 108 144 0
-150 156 108 144 0
-145 -187 -151 -103 0
-145 -187 -151 -139 0
-145 -187 -103 -139 0
-145 -151 -103 -139 0
-146 -188 -152 -104 0
-146 -188 -152 -140 0
-146 -188 -104 -140 0
-146 -152 -104 -140 0
-147 -189 -153 -105 0
-147 -189 -153 -141 0
-147 -189 -105 -141 0
-147 -153 -105 -141 0
-148 -190 -154 -106 0
-148 -190 -154 -142 0
-148 -190 -106 -142 0
-148 -154 -106 -142 0
-149 -191 -155 -107 0
-149 -191 -155 -143 0
-149 -191 -107 -143 0
-149 -155 -107 -143 0
-150 -192 -156 -108 0
-150 -192 -156 -144 0
-150 -192 -108 -144 0
-150 -156 -108 -144 0
156 0
-151 0
-152 0
-153 0
-154 0
-155 0
198 162 114 150 0
-198 -162 0
-198 -114 0
-198 -150 0
-162 -114 0
-162 -150 0
-114 -150 0
157 0
-158 0
-159 0
-160 0
-161 0
-162 0
199 163 115 151 0
-199 -163 0
-199 -115 0
-199 -151 0
-163 -115 0
-163 -151 0
-115 -151 0
163 164 165 166 167 168 0
-163 -364 0
-163 -365 0
-163 -366 0
-164 364 0
-164 -365 0
-164 -366 0
-165 -364 0
-165 365 0
-165 -366 0
-166 364 0
-166 365 0
-166 -366 0
-167 -364 0
-167 -365 0
-167 366 0
-168 364 0
-168 -365 0
-168 366 0
-163 205 157 0
-163 205 121 0
-163 157 121 0
-164 206 158 0
-164 206 122 0
-164 158 122 0
-165 207 159 0
-165 207 123 0
-165 159 123 0
-166 208 160 0
-166 208 124 0
-166 160 124 0
-167 209 161 0
-167 209 125 0
-167 161 125 0
-168 210 162 0
-168 210 126 0
-168 162 126 0
-163 -205 -157 -121 0
-164 -206 -158 -122 0
-165 -207 -159 -123 0
-166 -208 -160 -124 0
-167 -209 -161 -125 0
-168 -210 -162 -126 0
169 170 171 172 173 174 0
-169 -367 0
-169 -368 0
-169 -369 0
-170 367 0
-170 -368 0
-170 -369 0
-171 -367 0
-171 368 0
-171 -369 0
-172 367 0
-172 368 0
-172 -369 0
-173 -367 0
-173 -368 0
-173 369 0
-174 367 0
-174 -368 0
-174 369 0
-169 211 175 0
-169 211 127 0
-169 175 127 0
-170 212 176 0
-170 212 128 0
-170 176 128 0
-171 213 177 0
-171 213 129 0
-171 177 129 0
-172 214 178 0
-172 214 130 0
-172 178 130 0
-173 215 179 0
-173 215 131 0
-173 179 131 0
-174 216 180 0
-174 216 132 0
-174 180 132 0
-169 -211 -175 -127 0
-170 -212 -176 -128 0
-171 -213 -177 -129 0
-172 -214 -178 -130 0
-173 -215 -179 -131 0
-174 -216 -180 -132 0
175 176 177 178 179 180 0
-175 -370 0
-175 -371 0
-175 -372 0
-176 370 0
-176 -371 0
-176 -372 0
-177 -370 0
-177 371 0
-177 -372 0
-178 370 0
-178 371 0
-178 -372 0
-179 -370 0
-179 -371 0
-179 372 0
-180 370 0
-180 -371 0
-180 372 0
-175 217 181 133 0
-175 217 181 169 0
-175 217 133 169 0
-175 181 133 169 0
-176 218 182 134 0
-176 218 182 170 0
-176 218 134 170 0
-176 182 134 170 0
-177 219 183 135 0
-177 219 183 171 0
-177 219 135 171 0
-177 183 135 171 0
-178 220 184 136 0
-178 220 184 172 0
-178 220 136 172 0
-178 184 136 172 0
-179 221 185 137 0
-179 221 185 173 0
-179 221 137 173 0
-179 185 137 173 0
-180 222 186 138 0
-180 222 186 174 0
-180 222 138 174 0
-180 186 138 174 0
-175 -217 -181 -133 0
-175 -217 -181 -169 0
-175 -217 -133 -169 0
-175 -181 -133 -169 0
-176 -218 -182 -134 0
-176 -218 -182 -170 0
-176 -218 -134 -170 0
-176 -182 -134 -170 0
-177 -219 -183 -135 0
-177 -219 -183 -171 0
-177 -219 -135 -171 0
-177 -183 -135 -171 0
-178 -220 -184 -136 0
-178 -220 -184 -172 0
-178 -220 -136 -172 0
-178 -184 -136 -172 0
-179 -221 -185 -137 0
-179 -221 -185 -173 0
-179 -221 -137 -173 0
-179 -185 -137 -173 0
-180 -222 -186 -138 0
-180 -222 -186 -174 0
-180 -222 -138 -174 0
-180 -186 -138 -174 0
181 182 183 184 185 186 0
-181 -373 0
-181 -374 0
-181 -375 0
-182 373 0
-182 -374 0
-182 -375 0
-183 -373 0
-183 374 0
-183 -375 0
-184 373 0
-184 374 0
-184 -375 0
-185 -373 0
-185 -374 0
-185 375 0
-186 373 0
-186 -374 0
-186 375 0
-181 223 187 139 0
-181 223 187 175 0
-181 223 139 175 0
-181 187 139 175 0
-182 224 188 140 0
-182 224 188 176 0
-182 224 140 176 0
-182 188 140 176 0
-183 225 189 141 0
-183 225 189 177 0
-183 225 141 177 0
-183 189 141 177 0
-184 226 190 142 0
-184 226 190 178 0
-184 226 142 178 0
-184 190 142 178 0
-185 227 191 143 0
-185 227 191 179 0
-185 227 143 179 0
-185 191 143 179 0
-186 228 192 144 0
-186 228 192 180 0
-186 228 144 180 0
-186 192 144 180 0
-181 -223 -187 -139 0
-181 -223 -187 -175 0
-181 -223 -139 -175 0
-181 -187 -139 -175 0
-182 -224 -188 -140 0
-182 -224 -188 -176 0
-182 -224 -140 -176 0
-182 -188 -140 -176 0
-183 -225 -189 -141 0
-183 -225 -189 -177 0
-183 -225 -141 -177 0
-183 -189 -141 -177 0
-184 -226 -190 -142 0
-184 -226 -190 -178 0
-184 -226 -142 -178 0
-184 -190 -142 -178 0
-185 -227 -191 -143 0
-185 -227 -191 -179 0
-185 -227 -143 -179 0
-185 -191 -143 -179 0
-186 -228 -192 -144 0
-186 -228 -192 -180 0
-186 -228 -144 -180 0
-186 -192 -144 -180 0
187 188 189 190 191 192 0
-187 -376 0
-187 -377 0
-187 -378 0
-188 376 0
-188 -377 0
-188 -378 0
-189 -376 0
-189 377 0
-189 -378 0
-190 376 0
-190 377 0
-190 -378 0
-191 -376 0
-191 -377 0
-191 378 0
-192 376 0
-192 -377 0
-192 378 0
-187 229 193 145 0
-187 229 193 181 0
-187 229 145 181 0
-187 193 145 181 0
-188 230 194 146 0
-188 230 194 182 0
-188 230 146 182 0
-188 194 146 182 0
-189 231 195 147 0
-189 231 195 183 0
-189 231 147 183 0
-189 195 147 183 0
-190 232 196 148 0
-190 232 196 184 0
-190 232 148 184 0
-190 196 148 184 0
-191 233 197 149 0
-191 233 197 185 0
-191 233 149 185 0
-191 197 149 185 0
-192 234 198 150 0
-192 234 198 186 0
-192 234 150 186 0
-192 198 150 186 0
-187 -229 -193 -145 0
-187 -229 -193 -181 0
-187 -229 -145 -181 0
-187 -193 -145 -181 0
-188 -230 -194 -146 0
-188 -230 -194 -182 0
-188 -230 -146 -182 0
-188 -194 -146 -182 0
-189 -231 -195 -147 0
-189 -231 -195 -183 0
-189 -231 -147 -183 0
-189 -195 -147 -183 0
-190 -232 -196 -148 0
-190 -232 -196 -184 0
-190 -232 -148 -184 0
-190 -196 -148 -184 0
-191 -233 -197 -149 0
-191 -233 -197 -185 0
-191 -233 -149 -185 0
-191 -197 -149 -185 0
-192 -234 -198 -150 0
-192 -234 -198 -186 0
-192 -234 -150 -186 0
-192 -198 -150 -186 0
197 0
-193 0
-194 0
-195 0
-196 0
-198 0
239 203 155 191 0
-239 -203 0
-239 -155 0
-239 -191 0
-203 -155 0
-203 -191 0
-155 -191 0
199 200 201 202 203 204 0
-199 -379 0
-199 -380 0
-199 -381 0
-200 379 0
-200 -380 0
-200 -381 0
-201 -379 0
-201 380 0
-201 -381 0
-202 379 0
-202 380 0
-202 -381 0
-203 -379 0
-203 -380 0
-203 381 0
-204 379 0
-204 -380 0
-204 381 0
-199 241 205 157 0
-199 241 205 193 0
-199 241 157 193 0
-199 205 157 193 0
-200 242 206 158 0
-200 242 206 194 0
-200 242 158 194 0
-200 206 158 194 0
-201 243 207 159 0
-201 243 207 195 0
-201 243 159 195 0
-201 207 159 195 0
-202 244 208 160 0
-202 244 208 196 0
-202 244 160 196 0
-202 208 160 196 0
-203 245 209 161 0
-203 245 209 197 0
-203 245 161 197 0
-203 209 161 197 0
-204 246 210 162 0
-204 246 210 198 0
-204 246 162 198 0
-204 210 162 198 0
-199 -241 -205 -157 0
-199 -241 -205 -193 0
-199 -241 -157 -193 0
-199 -205 -157 -193 0
-200 -242 -206 -158 0
-200 -242 -206 -194 0
-200 -242 -158 -194 0
-200 -206 -158 -194 0
-201 -243 -207 -159 0
-201 -243 -207 -195 0
-201 -243 -159 -195 0
-201 -207 -159 -195 0
-202 -244 -208 -160 0
-202 -244 -208 -196 0
-202 -244 -160 -196 0
-202 -208 -160 -196 0
-203 -245 -209 -161 0
-203 -245 -209 -197 0
-203 -245 -161 -197 0
-203 -209 -161 -197 0
-204 -246 -210 -162 0
-204 -246 -210 -198 0
-204 -246 -162 -198 0
-204 -210 -162 -198 0
205 206 207 208 209 210 0
-205 -382 0
-205 -383 0
-205 -384 0
-206 382 0
-206 -383 0
-206 -384 0
-207 -382 0
-207 383 0
-207 -384 0
-208 382 0
-208 383 0
-208 -384 0
-209 -382 0
-209 -383 0
-209 384 0
-210 382 0
-210 -383 0
-210 384 0
-205 247 199 0
-205 247 163 0
-205 199 163 0
-206 248 200 0
-206 248 164 0
-206 200 164 0
-207 249 201 0
-207 249 165 0
-207 201 165 0
-208 250 202 0
-208 250 166 0
-208 202 166 0
-209 251 203 0
-209 251 167 0
-209 203 167 0
-210 252 204 0
-210 252 168 0
-210 204 168 0
-205 -247 -199 -163 0
-206 -248 -200 -164 0
-207 -249 -201 -165 0
-208 -250 -202 -166 0
-209 -251 -203 -167 0
-210 -252 -204 -168 0
211 212 213 214 215 216 0
-211 -385 0
-211 -386 0
-211 -387 0
-212 385 0
-212 -386 0
-212 -387 0
-213 -385 0
-213 386 0
-213 -387 0
-214 385 0
-214 386 0
-214 -387 0
-215 -385 0
-215 -386 0
-215 387 0
-216 385 0
-216 -386 0
-216 387 0
-211 253 217 0
-211 253 169 0
-211 217 169 0
-212 254 218 0
-212 254 170 0
-212 218 170 0
-213 255 219 0
-213 255 171 0
-213 219 171 0
-214 256 220 0
-214 256 172 0
-214 220 172 0
-215 257 221 0
-215 257 173 0
-215 221 173 0
-216 258 222 0
-216 258 174 0
-216 222 174 0
-211 -253 -217 -169 0
-212 -254 -218 -170 0
-213 -255 -219 -171 0
-214 -256 -220 -172 0
-215 -257 -221 -173 0
-216 -258 -222 -174 0
217 218 219 220 221 222 0
-217 -388 0
-217 -389 0
-217 -390 0
-218 388 0
-218 -389 0
-218 -390 0
-219 -388 0
-219 389 0
-219 -390 0
-220 388 0
-220 389 0
-220 -390 0
-221 -388 0
-221 -389 0
-221 390 0
-222 388 0
-222 -389 0
-222 390 0
-217 259 223 175 0
-217 259 223 211 0
-217 259 175 211 0
-217 223 175 211 0
-218 260 224 176 0
-218 260 224 212 0
-218 260 176 212 0
-218 224 176 212 0
-219 261 225 177 0
-219 261 225 213 0
-219 261 177 213 0
-219 225 177 213 0
-220 262 226 178 0
-220 262 226 214 0
-220 262 178 214 0
-220 226 178 214 0
-221 263 227 179 0
-221 263 227 215 0
-221 263 179 215 0
-221 227 179 215 0
-222 264 228 180 0
-222 264 228 216 0
-222 264 180 216 0
-222 228 180 216 0
-217 -259 -223 -175 0
-217 -259 -223 -211 0
-217 -259 -175 -211 0
-217 -223 -175 -211 0
-218 -260 -224 -176 0
-218 -260 -224 -212 0
-218 -260 -176 -212 0
-218 -224 -176 -212 0
-219 -261 -225 -177 0
-219 -261 -225 -213 0
-219 -261 -177 -213 0
-219 -225 -177 -213 0
-220 -262 -226 -178 0
-220 -262 -226 -214 0
-220 -262 -178 -214 0
-220 -226 -178 -214 0
-221 -263 -227 -179 0
-221 -263 -227 -215 0
-221 -263 -179 -215 0
-221 -227 -179 -215 0
-222 -264 -228 -180 0
-222 -264 -228 -216 0
-222 -264 -180 -216 0
-222 -228 -180 -216 0
224 0
-223 0
-225 0
-226 0
-227 0
-228 0
266 230 182 218 0
-266 -230 0
-266 -182 0
-266 -218 0
-230 -182 0
-230 -218 0
-182 -218 0
234 0
-229 0
-230 0
-231 0
-232 0
-233 0
276 240 192 228 0
-276 -240 0
-276 -192 0
-276 -228 0
-240 -192 0
-240 -228 0
-192 -228 0
237 0
-235 0
-236 0
-238 0
-239 0
-240 0
279 243 195 231 0
-279 -243 0
-279 -195 0
-279 -231 0
-243 -195 0
-243 -231 0
-195 -231 0
244 0
-241 0
-242 0
-243 0
-245 0
-246 0
286 250 202 238 0
-286 -250 0
-286 -202 0
-286 -238 0
-250 -202 0
-250 -238 0
-202 -238 0
251 0
-247 0
-248 0
-249 0
-250 0
-252 0
293 245 209 0
-293 -245 0
-293 -209 0
-245 -209 0
253 0
-254 0
-255 0
-256 0
-257 0
-258 0
211 259 0
-211 -259 0
259 260 261 262 263 264 0
-259 -391 0
-259 -392 0
-259 -393 0
-260 391 0
-260 -392 0
-260 -393 0
-261 -391 0
-261 392 0
-261 -393 0
-262 391 0
-262 392 0
-262 -393 0
-263 -391 0
-263 -392 0
-263 393 0
-264 391 0
-264 -392 0
-264 393 0
-259 217 265 0
-259 217 253 0
-259 265 253 0
-260 218 266 0
-260 218 254 0
-260 266 254 0
-261 219 267 0
-261 219 255 0
-261 267 255 0
-262 220 268 0
-262 220 256 0
-262 268 256 0
-263 221 269 0
-263 221 257 0
-263 269 257 0
-264 222 270 0
-264 222 258 0
-264 270 258 0
-259 -217 -265 -253 0
-260 -218 -266 -254 0
-261 -219 -267 -255 0
-262 -220 -268 -256 0
-263 -221 -269 -257 0
-264 -222 -270 -258 0
265 266 267 268 269 270 0
-265 -394 0
-265 -395 0
-265 -396 0
-266 394 0
-266 -395 0
-266 -396 0
-267 -394 0
-267 395 0
-267 -396 0
-268 394 0
-268 395 0
-268 -396 0
-269 -394 0
-269 -395 0
-269 396 0
-270 394 0
-270 -395 0
-270 396 0
-265 223 271 0
-265 223 259 0
-265 271 259 0
-266 224 272 0
-266 224 260 0
-266 272 260 0
-267 225 273 0
-267 225 261 0
-267 273 261 0
-268 226 274 0
-268 226 262 0
-268 274 262 0
-269 227 275 0
-269 227 263 0
-269 275 263 0
-270 228 276 0
-270 228 264 0
-270 276 264 0
-265 -223 -271 -259 0
-266 -224 -272 -260 0
-267 -225 -273 -261 0
-268 -226 -274 -262 0
-269 -227 -275 -263 0
-270 -228 -276 -264 0
271 272 273 274 275 276 0
-271 -397 0
-271 -398 0
-271 -399 0
-272 397 0
-272 -398 0
-272 -399 0
-273 -397 0
-273 398 0
-273 -399 0
-274 397 0
-274 398 0
-274 -399 0
-275 -397 0
-275 -398 0
-275 399 0
-276 397 0
-276 -398 0
-276 399 0
-271 229 277 0
-271 229 265 0
-271 277 265 0
-272 230 278 0
-272 230 266 0
-272 278 266 0
-273 231 279 0
-273 231 267 0
-273 279 267 0
-274 232 280 0
-274 232 268 0
-274 280 268 0
-275 233 281 0
-275 233 269 0
-275 281 269 0
-276 234 282 0
-276 234 270 0
-276 282 270 0
-271 -229 -277 -265 0
-272 -230 -278 -266 0
-273 -231 -279 -267 0
-274 -232 -280 -268 0
-275 -233 -281 -269 0
-276 -234 -282 -270 0
277 278 279 280 281 282 0
-277 -400 0
-277 -401 0
-277 -402 0
-278 400 0
-278 -401 0
-278 -402 0
-279 -400 0
-279 401 0
-279 -402 0
-280 400 0
-280 401 0
-280 -402 0
-281 -400 0
-281 -401 0
-281 402 0
-282 400 0
-282 -401 0
-282 402 0
-277 235 283 0
-277 235 271 0
-277 283 271 0
-278 236 284 0
-278 236 272 0
-278 284 272 0
-279 237 285 0
-279 237 273 0
-279 285 273 0
-280 238 286 0
-280 238 274 0
-280 286 274 0
-281 239 287 0
-281 239 275 0
-281 287 275 0
-282 240 288 0
-282 240 276 0
-282 288 276 0
-277 -235 -283 -271 0
-278 -236 -284 -272 0
-279 -237 -285 -273 0
-280 -238 -286 -274 0
-281 -239 -287 -275 0
-282 -240 -288 -276 0
283 284 285 286 287 288 0
-283 -403 0
-283 -404 0
-283 -405 0
-284 403 0
-284 -404 0
-284 -405 0
-285 -403 0
-285 404 0
-285 -405 0
-286 403 0
-286 404 0
-286 -405 0
-287 -403 0
-287 -404 0
-287 405 0
-288 403 0
-288 -404 0
-288 405 0
-283 241 289 0
-283 241 277 0
-283 289 277 0
-284 242 290 0
-284 242 278 0
-284 290 278 0
-285 243 291 0
-285 243 279 0
-285 291 279 0
-286 244 292 0
-286 244 280 0
-286 292 280 0
-287 245 293 0
-287 245 281 0
-287 293 281 0
-288 246 294 0
-288 246 282 0
-288 294 282 0
-283 -241 -289 -277 0
-284 -242 -290 -278 0
-285 -243 -291 -279 0
-286 -244 -292 -280 0
-287 -245 -293 -281 0
-288 -246 -294 -282 0
292 0
-289 0
-290 0
-291 0
-293 0
-294 0
250 286 0
-250 -286 0
169 175 181 187 199 205 0
211 217 0
7 49 91 133 175 217 259 0
13 55 97 139 181 265 0
19 61 103 145 187 271 0
25 67 277 0
128 134 140 146 164 0
170 176 182 188 200 206 0
20 62 104 146 188 272 0
129 135 141 147 165 0
171 177 183 189 201 207 0
35 77 203 287 0
174 180 186 192 204 210 0